NAME : n60w200.003.560.tour
COMMENT : Length = 560
COMMENT : Found by LKH [Keld Helsgaun] Tue May  2 05:47:35 2017
TYPE : TOUR
DIMENSION : 61
TOUR_SECTION
1
10
56
7
4
2
25
33
41
31
45
55
36
15
51
23
17
9
37
22
30
60
18
12
6
53
44
52
34
59
47
42
27
29
20
49
21
13
14
48
43
57
39
40
16
46
58
8
54
3
19
5
32
26
11
28
50
35
24
38
61
-1
EOF
